PARAMETER_FILE = even/even_uncomplete_graph_new/de/par/random75.par
PROBLEM_FILE = even/even_uncomplete_graph_new/de/mat/random75.tsp
Successes/Runs = 0/10
Cost.min = 685, Cost.avg = 685.00, Cost.max = 685
Gap.min = 0.0000%, Gap.avg = 0.0000%, Gap.max = 0.0000%
Trials.min = 1000, Trials.avg = 1000.0, Trials.max = 1000
Time.min = 0.14 sec., Time.avg = 0.16 sec., Time.max = 0.18 sec.
Time.total = 1.64 sec.
请按任意键继续. . . 
